\ Model Routes
\ LP format - for model browsing. Use MPS format to capture full model detail.
Maximize
  1295.445206194839 R{0,0} + 2353.896024458567 R{0,1}
   + 2353.896024458567 R{0,2} - 249.2301939667805 R{0,3}
   - 17.2186063228686 R{0,4} + 1085.481438609255 R{0,5}
   + 1085.481438609255 R{0,6} + 22.6692665483875 R{0,7}
   + 376.7733143093531 R{0,8} + 2460.7439227919 R{0,9}
   + 2487.850493291201 R{0,10} + 1951.535655086937 R{0,11}
   + 1377.095337115182 R{0,12} + 1421.24273692466 R{0,13}
   + 1206.557812906657 R{0,14} + 1213.337541789675 R{0,15}
   + 1619.148832097316 R{0,16} + 612.5108123853087 R{0,17}
   + 288.5213367536722 R{0,18} + 1515.826595488276 R{0,19}
   + 695.6498560291323 R{0,20} + 819.6939708888972 R{0,21}
   + 2123.721634664243 R{0,22} + 865.3849000260889 R{0,23}
   + 1199.100377617498 R{0,24} + 396.9560721956104 R{0,25}
   - 256.140831891889 R{1,0} + 336.2990336595462 R{1,1}
   + 1133.553539856711 R{1,2} + 1432.486019617995 R{1,3}
   + 261.3006241012804 R{1,4} + 1153.25987036687 R{1,5}
   + 987.8499126087549 R{1,6} + 40.57697068134792 R{1,7}
   + 360.3780896334492 R{1,8} + 1153.25987036687 R{1,9}
   + 596.9576368547102 R{1,10} + 819.3221612055495 R{1,11}
   + 378.148632983912 R{1,12} + 859.5347841218186 R{1,13}
   + 861.65461497397 R{1,14} + 941.3984645956032 R{1,15}
   + 771.2218040659614 R{1,16} + 779.4258502184073 R{1,17}
   + 396.4894499182021 R{1,18} + 606.3685877003353 R{1,19}
   + 1421.725254967052 R{1,20} + 1412.38024162542 R{1,21}
   + 1153.25987036687 R{1,22} + 836.1341859543684 R{1,23}
   + 360.3780896334492 R{1,24} - 278.4443928850388 R{2,0}
   - 59.13410337035452 R{2,1} + 602.7748664658451 R{2,2}
   + 1100.505917706273 R{2,3} + 629.9638570536306 R{2,4}
   + 661.1183809175574 R{2,5} + 254.2765511022717 R{2,6}
   + 254.2699887389686 R{2,7} + 808.2637496301763 R{2,8}
   + 766.6476906434871 R{2,9} + 73.02847583409493 R{2,10}
   + 1021.534971337508 R{2,11} + 565.729976977299 R{2,12}
   + 157.4662907254282 R{2,13} + 286.332348448421 R{2,14}
   - 260.2482995389823 R{3,0} + 507.2449935460145 R{3,1}
   + 886.6055046369149 R{3,2} + 612.891162352367 R{3,3}
   + 584.0192914763643 R{3,4} + 256.0479808477794 R{3,5}
   + 539.3026014832343 R{3,6} + 456.8563942665614 R{3,7}
   + 251.9525734769839 R{3,8} + 596.1945398323494 R{3,9}
   + 842.6989109255439 R{3,10} + 860.7453442993385 R{3,11}
   + 1653.250942233845 R{3,12} + 1017.231927076638 R{3,13}
   + 965.1315562111231 R{3,14} + 252.25479183249 R{3,15}
   + 1029.646613266731 R{3,16} - 242.5208875955131 R{4,0}
   + 828.5964431846835 R{4,1} + 1338.413574514046 R{4,2}
   + 1294.61980791785 R{4,3} + 1150.072122497651 R{4,4}
   + 1135.691194511631 R{4,5} + 996.8564770992639 R{4,6}
   + 333.8744105212986 R{4,7} + 1376.976663885629 R{4,8}
   + 201.6288838756186 R{4,9} + 691.9879837345527 R{4,10}
   + 1005.399504172769 R{4,11} + 1001.03299096596 R{4,12}
   + 1135.691194511631 R{4,13} + 90.69471856059442 R{4,14}
   + 774.7693433538527 R{4,15} + 993.0104846757508 R{4,16}
   + 201.6288838756186 R{4,17} + 1199.308757501388 R{4,18}
   + 333.9145137384935 R{4,19} + 240.5372554727521 R{4,20}
   + 107.8668279781308 R{4,21} + 983.0143785989285 R{4,22}
   + 652.030343185683 R{4,23} - 231.9775664337766 R{5,0}
   + 326.98460213128 R{5,1} + 1480.650475450034 R{5,2}
   + 1480.650475450034 R{5,3} + 224.9290840370929 R{5,4}
   + 538.382503143562 R{5,5} + 159.2017178284015 R{5,6}
   + 914.942775265707 R{5,7} + 203.634036160925 R{5,8}
   + 326.98460213128 R{5,9} + 1636.295287849788 R{5,10}
   + 469.7623882148815 R{5,11} + 483.2944006459898 R{5,12}
   + 603.9833816731045 R{5,13} + 1561.28237883523 R{5,14}
   + 918.7542552233858 R{5,15} + 520.6456640299077 R{5,16}
   + 759.3537769987527 R{5,17} + 587.3063902643248 R{5,18}
   + 457.2856521908589 R{5,19} + 1443.63525784594 R{5,20}
   + 1071.424843120956 R{5,21} + 1456.630015843524 R{5,22}
   - 231.1436095783099 R{6,0} + 1370.402709432251 R{6,1}
   + 1806.330371164076 R{6,2} + 2809.314489173644 R{6,3}
   + 988.8742367114944 R{6,4} + 1627.482824474859 R{6,5}
   + 1590.521183536305 R{6,6} + 983.4730227897589 R{6,7}
   + 1474.860110336846 R{6,8} + 1248.815936484026 R{6,9}
   + 1306.881187977525 R{6,10} + 2285.186193923001 R{6,11}
   + 1687.264060698368 R{6,12} + 1878.334436729031 R{6,13}
   + 1304.182852395428 R{6,14} + 1878.334436729031 R{6,15}
   + 1834.90452982545 R{6,16} + 2276.123716841977 R{6,17}
   + 1105.003844656376 R{6,18} + 1009.791865783309 R{6,19}
   + 1343.148829626666 R{6,20} + 1771.629505623955 R{6,21}
   + 580.4267681653409 R{6,22} + 1334.236646668559 R{6,23}
   + 545.657867567767 R{6,24}
Subject To
 R00: R{0,0} <= 1
 R01: R{0,1} <= 1
 R02: R{0,2} <= 1
 R03: R{0,3} <= 1
 R04: R{0,4} <= 1
 R05: R{0,5} <= 1
 R06: R{0,6} <= 1
 R07: R{0,7} <= 1
 R08: R{0,8} <= 1
 R09: R{0,9} <= 1
 R010: R{0,10} <= 1
 R011: R{0,11} <= 1
 R012: R{0,12} <= 1
 R013: R{0,13} <= 1
 R014: R{0,14} <= 1
 R015: R{0,15} <= 1
 R016: R{0,16} <= 1
 R017: R{0,17} <= 1
 R018: R{0,18} <= 1
 R019: R{0,19} <= 1
 R020: R{0,20} <= 1
 R021: R{0,21} <= 1
 R022: R{0,22} <= 1
 R023: R{0,23} <= 1
 R024: R{0,24} <= 1
 R025: R{0,25} <= 1
 R026: R{1,0} <= 1
 R027: R{1,1} <= 1
 R028: R{1,2} <= 1
 R029: R{1,3} <= 1
 R030: R{1,4} <= 1
 R031: R{1,5} <= 1
 R032: R{1,6} <= 1
 R033: R{1,7} <= 1
 R034: R{1,8} <= 1
 R035: R{1,9} <= 1
 R036: R{1,10} <= 1
 R037: R{1,11} <= 1
 R038: R{1,12} <= 1
 R039: R{1,13} <= 1
 R040: R{1,14} <= 1
 R041: R{1,15} <= 1
 R042: R{1,16} <= 1
 R043: R{1,17} <= 1
 R044: R{1,18} <= 1
 R045: R{1,19} <= 1
 R046: R{1,20} <= 1
 R047: R{1,21} <= 1
 R048: R{1,22} <= 1
 R049: R{1,23} <= 1
 R050: R{1,24} <= 1
 R051: R{2,0} <= 1
 R052: R{2,1} <= 1
 R053: R{2,2} <= 1
 R054: R{2,3} <= 1
 R055: R{2,4} <= 1
 R056: R{2,5} <= 1
 R057: R{2,6} <= 1
 R058: R{2,7} <= 1
 R059: R{2,8} <= 1
 R060: R{2,9} <= 1
 R061: R{2,10} <= 1
 R062: R{2,11} <= 1
 R063: R{2,12} <= 1
 R064: R{2,13} <= 1
 R065: R{2,14} <= 1
 R066: R{3,0} <= 1
 R067: R{3,1} <= 1
 R068: R{3,2} <= 1
 R069: R{3,3} <= 1
 R070: R{3,4} <= 1
 R071: R{3,5} <= 1
 R072: R{3,6} <= 1
 R073: R{3,7} <= 1
 R074: R{3,8} <= 1
 R075: R{3,9} <= 1
 R076: R{3,10} <= 1
 R077: R{3,11} <= 1
 R078: R{3,12} <= 1
 R079: R{3,13} <= 1
 R080: R{3,14} <= 1
 R081: R{3,15} <= 1
 R082: R{3,16} <= 1
 R083: R{4,0} <= 1
 R084: R{4,1} <= 1
 R085: R{4,2} <= 1
 R086: R{4,3} <= 1
 R087: R{4,4} <= 1
 R088: R{4,5} <= 1
 R089: R{4,6} <= 1
 R090: R{4,7} <= 1
 R091: R{4,8} <= 1
 R092: R{4,9} <= 1
 R093: R{4,10} <= 1
 R094: R{4,11} <= 1
 R095: R{4,12} <= 1
 R096: R{4,13} <= 1
 R097: R{4,14} <= 1
 R098: R{4,15} <= 1
 R099: R{4,16} <= 1
 R0100: R{4,17} <= 1
 R0101: R{4,18} <= 1
 R0102: R{4,19} <= 1
 R0103: R{4,20} <= 1
 R0104: R{4,21} <= 1
 R0105: R{4,22} <= 1
 R0106: R{4,23} <= 1
 R0107: R{5,0} <= 1
 R0108: R{5,1} <= 1
 R0109: R{5,2} <= 1
 R0110: R{5,3} <= 1
 R0111: R{5,4} <= 1
 R0112: R{5,5} <= 1
 R0113: R{5,6} <= 1
 R0114: R{5,7} <= 1
 R0115: R{5,8} <= 1
 R0116: R{5,9} <= 1
 R0117: R{5,10} <= 1
 R0118: R{5,11} <= 1
 R0119: R{5,12} <= 1
 R0120: R{5,13} <= 1
 R0121: R{5,14} <= 1
 R0122: R{5,15} <= 1
 R0123: R{5,16} <= 1
 R0124: R{5,17} <= 1
 R0125: R{5,18} <= 1
 R0126: R{5,19} <= 1
 R0127: R{5,20} <= 1
 R0128: R{5,21} <= 1
 R0129: R{5,22} <= 1
 R0130: R{6,0} <= 1
 R0131: R{6,1} <= 1
 R0132: R{6,2} <= 1
 R0133: R{6,3} <= 1
 R0134: R{6,4} <= 1
 R0135: R{6,5} <= 1
 R0136: R{6,6} <= 1
 R0137: R{6,7} <= 1
 R0138: R{6,8} <= 1
 R0139: R{6,9} <= 1
 R0140: R{6,10} <= 1
 R0141: R{6,11} <= 1
 R0142: R{6,12} <= 1
 R0143: R{6,13} <= 1
 R0144: R{6,14} <= 1
 R0145: R{6,15} <= 1
 R0146: R{6,16} <= 1
 R0147: R{6,17} <= 1
 R0148: R{6,18} <= 1
 R0149: R{6,19} <= 1
 R0150: R{6,20} <= 1
 R0151: R{6,21} <= 1
 R0152: R{6,22} <= 1
 R0153: R{6,23} <= 1
 R0154: R{6,24} <= 1
 R1_0: R{0,0} + R{0,1} + R{0,2} + R{0,3} + R{0,4} + R{0,5} + R{0,6}
   + R{0,7} + R{0,8} + R{0,9} + R{0,10} + R{0,11} + R{0,12} + R{0,13}
   + R{0,14} + R{0,15} + R{0,16} + R{0,17} + R{0,18} + R{0,19} + R{0,20}
   + R{0,21} + R{0,22} + R{0,23} + R{0,24} + R{0,25} <= 1
 R1_1: R{1,0} + R{1,1} + R{1,2} + R{1,3} + R{1,4} + R{1,5} + R{1,6}
   + R{1,7} + R{1,8} + R{1,9} + R{1,10} + R{1,11} + R{1,12} + R{1,13}
   + R{1,14} + R{1,15} + R{1,16} + R{1,17} + R{1,18} + R{1,19} + R{1,20}
   + R{1,21} + R{1,22} + R{1,23} + R{1,24} <= 1
 R1_2: R{2,0} + R{2,1} + R{2,2} + R{2,3} + R{2,4} + R{2,5} + R{2,6}
   + R{2,7} + R{2,8} + R{2,9} + R{2,10} + R{2,11} + R{2,12} + R{2,13}
   + R{2,14} <= 1
 R1_3: R{3,0} + R{3,1} + R{3,2} + R{3,3} + R{3,4} + R{3,5} + R{3,6}
   + R{3,7} + R{3,8} + R{3,9} + R{3,10} + R{3,11} + R{3,12} + R{3,13}
   + R{3,14} + R{3,15} + R{3,16} <= 1
 R1_4: R{4,0} + R{4,1} + R{4,2} + R{4,3} + R{4,4} + R{4,5} + R{4,6}
   + R{4,7} + R{4,8} + R{4,9} + R{4,10} + R{4,11} + R{4,12} + R{4,13}
   + R{4,14} + R{4,15} + R{4,16} + R{4,17} + R{4,18} + R{4,19} + R{4,20}
   + R{4,21} + R{4,22} + R{4,23} <= 1
 R1_5: R{5,0} + R{5,1} + R{5,2} + R{5,3} + R{5,4} + R{5,5} + R{5,6}
   + R{5,7} + R{5,8} + R{5,9} + R{5,10} + R{5,11} + R{5,12} + R{5,13}
   + R{5,14} + R{5,15} + R{5,16} + R{5,17} + R{5,18} + R{5,19} + R{5,20}
   + R{5,21} + R{5,22} <= 1
 R1_6: R{6,0} + R{6,1} + R{6,2} + R{6,3} + R{6,4} + R{6,5} + R{6,6}
   + R{6,7} + R{6,8} + R{6,9} + R{6,10} + R{6,11} + R{6,12} + R{6,13}
   + R{6,14} + R{6,15} + R{6,16} + R{6,17} + R{6,18} + R{6,19} + R{6,20}
   + R{6,21} + R{6,22} + R{6,23} + R{6,24} <= 1
 R2_0: 7 R{0,0} + 7 R{0,1} + 7 R{0,2} + 7 R{0,9} + 7 R{0,10} + 7 R{0,11}
   + 7 R{0,12} + 7 R{0,13} + 7 R{0,14} + 7 R{0,15} + 7 R{0,19} + 7 R{0,22}
   + 7 R{0,23} + 7 R{0,24} <= 7
 R2_1: 10 R{1,1} + 10 R{1,2} + 10 R{1,3} + 10 R{1,5} + 10 R{1,8}
   + 10 R{1,9} + 10 R{1,13} + 10 R{1,15} + 10 R{1,22} + 10 R{1,23}
   + 10 R{1,24} + 10 R{2,6} <= 10
 R2_2: 15 R{6,3} + 15 R{6,11} + 15 R{6,16} <= 16
 R2_3: 4 R{0,21} + 4 R{1,1} + 4 R{1,2} + 4 R{1,3} + 4 R{1,4} + 4 R{1,5}
   + 4 R{1,8} + 4 R{1,9} + 4 R{1,10} + 4 R{1,11} + 4 R{1,12} + 4 R{1,13}
   + 4 R{1,14} + 4 R{1,16} + 4 R{1,20} + 4 R{1,21} + 4 R{1,22} + 4 R{1,23}
   + 4 R{1,24} + 4 R{5,16} <= 4
 R2_4: <= 0
 R2_5: 5 R{0,4} + 5 R{0,5} + 5 R{0,6} + 3 R{5,2} + 3 R{5,3} <= 5
 R2_6: 10 R{0,7} + 10 R{0,8} + 10 R{0,20} + 10 R{3,1} + 10 R{3,2}
   + 10 R{3,3} + 10 R{3,5} + 10 R{3,6} + 10 R{3,10} + 10 R{3,11}
   + 10 R{3,14} + 10 R{3,16} + 10 R{5,13} + 10 R{5,21} + 10 R{5,22} <= 10
 R2_7: 6 R{1,1} + 6 R{1,2} + 6 R{1,3} + 6 R{1,4} + 6 R{1,5} + 6 R{1,6}
   + 6 R{1,7} + 6 R{1,8} + 6 R{1,9} + 6 R{1,11} + 6 R{1,12} + 6 R{1,13}
   + 6 R{1,14} + 6 R{1,16} + 6 R{1,21} + 6 R{1,22} + 6 R{1,23} + 6 R{1,24}
   <= 6
 R2_8: <= 0
 R2_9: 12 R{4,1} + 12 R{4,2} + 12 R{4,3} + 12 R{4,4} + 12 R{4,5}
   + 12 R{4,6} + 12 R{4,7} + 12 R{4,8} + 12 R{4,9} + 12 R{4,10}
   + 12 R{4,11} + 12 R{4,12} + 12 R{4,13} + 12 R{4,14} + 12 R{4,15}
   + 12 R{4,16} + 12 R{4,17} + 12 R{4,18} + 12 R{4,19} + 12 R{4,20}
   + 12 R{4,22} + 12 R{4,23} <= 12
 R2_10: 8 R{6,1} + 8 R{6,2} + 8 R{6,4} + 8 R{6,5} + 8 R{6,6} + 8 R{6,7}
   + 8 R{6,13} + 8 R{6,15} + 8 R{6,17} + 8 R{6,21} + 8 R{6,22} + 8 R{6,23}
   <= 8
 R2_11: 15 R{0,24} <= 15
 R2_12: <= 0
 R2_13: <= 0
 R2_14: <= 0
 R2_15: 11 R{0,0} + 11 R{0,1} + 11 R{0,2} + 11 R{0,9} + 11 R{0,10}
   + 11 R{0,11} + 11 R{0,12} + 11 R{0,14} + 11 R{0,19} + 11 R{0,22}
   + 11 R{0,23} + 11 R{4,1} + 11 R{4,2} + 11 R{4,4} + 11 R{4,6} + 11 R{4,8}
   + 11 R{4,15} + 11 R{4,23} <= 11
 R2_16: 5 R{0,19} + 5 R{0,22} + 5 R{0,23} + 5 R{3,12} <= 5
 R2_17: <= 0
 R2_18: <= 0
 R2_19: 11 R{0,11} + 11 R{1,2} + 11 R{1,3} + 11 R{1,5} + 11 R{1,9}
   + 11 R{1,10} + 11 R{1,12} + 11 R{1,14} + 11 R{1,15} + 11 R{1,16}
   + 11 R{1,21} + 11 R{1,22} + 11 R{2,7} + 11 R{2,10} + 11 R{3,9}
   + 11 R{4,1} + 11 R{4,2} + 11 R{4,3} + 11 R{4,4} + 11 R{4,5} + 11 R{4,8}
   + 11 R{4,11} + 11 R{4,12} + 11 R{4,13} + 11 R{4,22} + 11 R{4,23}
   + 11 R{5,11} <= 11
 R2_20: 8 R{0,9} + 13 R{0,12} + 13 R{0,14} + 13 R{0,16} + 13 R{0,17}
   + 13 R{0,22} + 13 R{1,6} + 13 R{1,13} + 13 R{1,17} + 13 R{1,19}
   + 13 R{1,20} + 13 R{1,23} + 13 R{2,3} + 13 R{2,8} + 13 R{2,9}
   + 13 R{2,11} + 13 R{3,4} + 13 R{3,7} + 13 R{3,10} + 13 R{3,11}
   + 13 R{3,13} + 13 R{4,4} + 13 R{4,5} + 13 R{4,13} + 13 R{4,15}
   + 13 R{4,16} + 13 R{5,12} + 13 R{5,15} + 13 R{5,17} + 13 R{6,1}
   + 13 R{6,2} + 13 R{6,3} + 13 R{6,5} + 13 R{6,6} + 13 R{6,9} + 13 R{6,11}
   + 13 R{6,13} + 13 R{6,15} <= 13
 R2_21: <= 0
 R2_22: <= 10
 R2_23: 14 R{4,3} + 14 R{4,7} + 14 R{4,10} + 14 R{6,2} + 14 R{6,3}
   + 14 R{6,11} + 14 R{6,12} + 14 R{6,16} + 14 R{6,17} + 14 R{6,21} <= 14
 R2_24: 10 R{0,15} + 10 R{3,1} + 10 R{3,2} + 10 R{3,4} + 10 R{3,6}
   + 10 R{3,9} + 10 R{3,10} + 10 R{3,11} + 10 R{3,15} + 10 R{6,3}
   + 10 R{6,11} + 10 R{6,16} <= 10
 R2_25: <= 13
 R2_26: 6 R{0,18} + 6 R{1,10} + 6 R{2,13} + 6 R{5,1} + 6 R{5,2} + 6 R{5,3}
   + 6 R{5,4} + 6 R{5,5} + 6 R{5,6} + 6 R{5,8} + 6 R{5,9} + 6 R{5,10}
   + 6 R{5,11} + 6 R{5,12} + 6 R{5,13} + 6 R{5,14} + 6 R{5,15} + 6 R{5,16}
   + 6 R{5,17} + 6 R{5,18} + 6 R{5,19} + 6 R{5,20} + 6 R{5,21} <= 6
 R2_27: 5 R{0,5} + 5 R{0,6} + 5 R{0,8} + 5 R{0,16} + 5 R{0,17} + 5 R{0,25}
   + 5 R{1,11} + 5 R{1,15} + 5 R{1,17} + 5 R{1,19} + 5 R{2,8} + 5 R{2,9}
   + 5 R{2,14} + 5 R{3,16} + 5 R{4,16} + 5 R{5,2} + 5 R{5,3} + 5 R{5,5}
   + 5 R{5,7} + 5 R{5,10} + 5 R{5,14} + 5 R{5,15} + 5 R{5,20} + 5 R{5,21}
   + 5 R{5,22} + 5 R{6,1} + 5 R{6,2} + 5 R{6,3} + 5 R{6,4} + 5 R{6,6}
   + 5 R{6,7} + 5 R{6,8} + 5 R{6,10} + 5 R{6,11} + 5 R{6,13} + 5 R{6,15}
   + 5 R{6,16} + 5 R{6,17} + 5 R{6,22} + 5 R{6,23} + 5 R{6,24} <= 5
 R2_28: <= 0
 R2_29: <= 0
 R2_30: <= 0
 R2_31: <= 0
 R2_32: 7 R{0,18} + 7 R{1,17} + 7 R{5,1} + 7 R{5,2} + 7 R{5,3} + 7 R{5,4}
   + 7 R{5,7} + 7 R{5,8} + 7 R{5,9} + 7 R{5,10} + 7 R{5,13} + 7 R{5,14}
   + 7 R{5,16} + 7 R{5,17} + 7 R{5,18} + 7 R{5,19} + 7 R{5,20} + 7 R{5,21}
   + 7 R{5,22} <= 7
 R2_33: 12 R{1,23} + 12 R{4,18} + 12 R{5,7} <= 12
 R2_34: 5 R{0,0} + 5 R{0,1} + 5 R{0,2} + 5 R{0,9} + 5 R{0,10} + 5 R{0,13}
   + 5 R{0,14} + 5 R{0,19} + 5 R{0,23} + 5 R{0,24} + 5 R{1,3} + 5 R{1,4}
   + 5 R{1,7} + 5 R{1,13} + 5 R{1,20} <= 5
 R2_35: <= 0
 R2_36: 15 R{5,1} + 15 R{5,2} + 15 R{5,3} + 15 R{5,4} + 15 R{5,5}
   + 15 R{5,6} + 15 R{5,7} + 15 R{5,8} + 15 R{5,9} + 15 R{5,11}
   + 15 R{5,12} + 15 R{5,13} + 15 R{5,14} + 15 R{5,15} + 15 R{5,17}
   + 15 R{5,20} + 15 R{5,21} <= 16
 R2_37: 5 R{0,18} + 5 R{3,1} + 5 R{3,2} + 5 R{3,3} + 5 R{3,5} + 5 R{3,6}
   + 5 R{3,9} + 5 R{3,12} + 5 R{3,14} + 5 R{3,16} + 5 R{5,16} + 5 R{5,18}
   <= 5
 R2_38: <= 0
 R2_39: 15 R{0,0} + 15 R{0,1} + 15 R{0,2} + 15 R{0,9} + 15 R{0,11}
   + 15 R{0,12} + 15 R{0,13} + 15 R{0,14} <= 17
 R2_40: 15 R{2,1} + 15 R{2,2} + 15 R{2,3} + 15 R{2,4} + 15 R{2,5}
   + 15 R{2,6} + 15 R{2,7} + 15 R{2,8} + 15 R{2,11} + 15 R{2,12}
   + 15 R{2,13} <= 15
 R2_41: 5 R{0,0} + 5 R{0,1} + 5 R{0,2} + 5 R{0,9} + 5 R{0,10} + 5 R{0,11}
   + 5 R{0,12} + 5 R{0,13} + 5 R{0,19} + 5 R{0,22} + 5 R{1,2} + 5 R{1,3}
   + 5 R{1,5} + 5 R{1,9} + 5 R{1,11} + 5 R{1,14} + 5 R{1,18} + 5 R{1,21}
   + 5 R{1,22} + 5 R{3,2} + 5 R{3,8} + 5 R{3,12} + 5 R{3,14} + 5 R{3,16}
   + 5 R{4,10} + 5 R{4,12} + 5 R{4,22} + 5 R{5,22} + 5 R{6,14} + 5 R{6,18}
   + 5 R{6,19} + 5 R{6,20} + 5 R{6,22} + 5 R{6,24} <= 5
 R2_42: 4 R{2,1} + 4 R{2,2} + 4 R{2,3} + 4 R{2,4} + 4 R{2,5} + 4 R{2,6}
   + 4 R{2,8} + 4 R{2,13} <= 4
 R2_43: <= 0
 R2_44: <= 0
 R2_45: <= 0
 R2_46: 9 R{0,10} + 9 R{0,15} + 9 R{3,12} + 9 R{4,21} + 9 R{6,5}
   + 9 R{6,13} + 9 R{6,15} <= 9
 R2_47: 7 R{0,0} + 7 R{0,1} + 7 R{0,2} + 7 R{0,13} + 7 R{5,1} + 7 R{5,2}
   + 7 R{5,3} + 7 R{5,4} + 7 R{5,5} + 7 R{5,6} + 7 R{5,7} + 7 R{5,9}
   + 7 R{5,13} + 7 R{5,14} + 7 R{5,20} <= 7
 R2_48: 4 R{0,15} + 4 R{4,1} + 4 R{4,2} + 4 R{4,3} + 4 R{4,4} + 4 R{4,5}
   + 4 R{4,6} + 4 R{4,8} + 4 R{4,11} + 4 R{4,12} + 4 R{4,13} + 4 R{4,15}
   + 4 R{4,16} + 4 R{4,18} <= 4
 R2_49: <= 0
 R2_50: <= 0
 R2_51: 11 R{0,15} + 11 R{4,1} + 11 R{4,3} + 11 R{4,23} + 10 R{5,7}
   + 11 R{6,12} + 11 R{6,21} <= 11
 R2_52: 10 R{4,19} + 10 R{4,22} <= 10
 R2_53: 13 R{4,1} + 13 R{4,2} + 13 R{4,3} + 13 R{4,4} + 13 R{4,5}
   + 13 R{4,6} + 13 R{4,7} + 13 R{4,8} + 13 R{4,13} + 13 R{4,15}
   + 13 R{4,16} + 13 R{4,18} + 13 R{4,23} <= 13
 R2_54: 9 R{1,18} + 9 R{3,1} + 9 R{3,2} + 9 R{3,3} + 9 R{3,4} + 9 R{3,5}
   + 9 R{3,6} + 9 R{3,7} + 9 R{3,8} + 9 R{3,9} + 9 R{3,10} + 9 R{3,11}
   + 9 R{3,13} + 9 R{3,14} + 9 R{3,15} + 9 R{3,16} + 9 R{6,14} <= 9
 R2_55: 8 R{1,14} + 8 R{1,16} + 8 R{6,1} + 8 R{6,2} + 8 R{6,4} + 8 R{6,5}
   + 8 R{6,6} + 8 R{6,7} + 8 R{6,8} + 8 R{6,9} + 8 R{6,10} + 8 R{6,12}
   + 8 R{6,13} + 8 R{6,15} + 8 R{6,20} + 8 R{6,21} + 8 R{6,23} <= 8
 R2_56: 6 R{0,1} + 6 R{0,2} + 6 R{0,10} + 6 R{0,19} + 6 R{0,22} + 6 R{0,24}
   + 6 R{1,21} + 6 R{3,12} + 6 R{4,9} + 6 R{4,11} + 6 R{4,17} + 6 R{4,20}
   + 6 R{6,3} + 6 R{6,6} + 6 R{6,7} + 6 R{6,8} + 6 R{6,9} + 6 R{6,14}
   + 6 R{6,20} + 6 R{6,23} <= 6
 R2_57: <= 0
 R2_58: <= 0
 R2_59: 10 R{1,6} + 10 R{1,16} + 10 R{4,14} + 10 R{4,19} + 10 R{6,11}
   + 10 R{6,12} + 10 R{6,16} + 10 R{6,17} + 10 R{6,21} <= 10
 R2_60: <= 0
 R2_61: 9 R{1,20} + 9 R{3,12} + 9 R{6,14} + 9 R{6,21} <= 9
 R2_62: <= 0
 R2_63: <= 0
 R2_64: <= 0
 R2_65: 5 R{0,15} + 5 R{0,23} + 5 R{6,1} + 5 R{6,2} + 5 R{6,3} + 5 R{6,4}
   + 5 R{6,5} + 5 R{6,10} + 5 R{6,11} + 5 R{6,12} + 5 R{6,13} + 5 R{6,14}
   + 5 R{6,15} + 5 R{6,16} + 5 R{6,17} + 5 R{6,18} + 5 R{6,19} <= 5
 R2_66: 7 R{3,7} + 7 R{3,15} + 7 R{5,14} + 7 R{5,21} + 7 R{5,22} + 7 R{6,1}
   + 7 R{6,2} + 7 R{6,4} + 7 R{6,5} + 7 R{6,6} + 7 R{6,7} + 7 R{6,8}
   + 7 R{6,10} + 7 R{6,12} + 7 R{6,18} + 7 R{6,19} + 7 R{6,20} + 7 R{6,21}
   + 7 R{6,23} <= 7
 R2_67: 3 R{0,13} + 3 R{0,24} + 3 R{6,3} + 3 R{6,5} + 3 R{6,8} + 3 R{6,9}
   + 3 R{6,10} + 3 R{6,11} + 3 R{6,12} + 3 R{6,13} + 3 R{6,15} + 3 R{6,16}
   + 3 R{6,17} + 3 R{6,18} + 3 R{6,19} + 3 R{6,20} + 3 R{6,21} + 3 R{6,23}
   <= 3
 R2_68: 6 R{1,1} + 6 R{1,2} + 6 R{1,3} + 6 R{1,4} + 6 R{1,5} + 6 R{1,6}
   + 6 R{1,8} + 6 R{1,9} + 6 R{1,10} + 6 R{1,11} + 6 R{1,12} + 6 R{1,15}
   + 6 R{1,18} + 6 R{1,21} + 6 R{1,22} + 6 R{1,24} + 6 R{5,16} + 6 R{6,12}
   + 6 R{6,14} + 6 R{6,21} <= 6
 R2_69: 7 R{0,0} + 7 R{0,1} + 7 R{0,2} + 7 R{0,10} + 7 R{0,11} + 7 R{0,12}
   + 7 R{0,13} + 7 R{0,14} + 7 R{1,21} + 7 R{2,9} + 7 R{4,1} + 7 R{4,2}
   + 7 R{4,3} + 7 R{4,4} + 7 R{4,5} + 7 R{4,6} + 7 R{4,8} + 7 R{4,11}
   + 7 R{4,12} + 7 R{4,13} + 7 R{4,15} + 7 R{4,18} + 7 R{4,22} + 7 R{4,23}
   <= 7
 R2_70: 11 R{1,1} + 11 R{1,2} + 11 R{1,6} + 11 R{1,8} + 11 R{1,24} <= 11
 R2_71: 7 R{0,9} + 7 R{0,22} + 7 R{2,14} + 7 R{3,12} + 7 R{6,1} + 7 R{6,2}
   + 7 R{6,3} + 7 R{6,4} + 7 R{6,5} + 7 R{6,6} + 7 R{6,8} + 7 R{6,9}
   + 7 R{6,10} + 7 R{6,11} + 7 R{6,13} + 7 R{6,15} + 7 R{6,16} + 7 R{6,17}
   + 7 R{6,18} + 7 R{6,19} + 7 R{6,20} <= 7
 R2_72: <= 0
 R2_73: 11 R{0,0} + 11 R{0,1} + 11 R{0,2} + 11 R{0,9} + 11 R{0,10}
   + 11 R{0,11} + 11 R{0,12} + 11 R{0,14} + 11 R{0,15} + 11 R{0,19}
   + 11 R{0,22} + 11 R{0,23} <= 11
 R2_74: 5 R{5,1} + 5 R{5,2} + 5 R{5,3} + 5 R{5,5} + 5 R{5,6} + 5 R{5,7}
   + 5 R{5,9} + 5 R{5,10} + 5 R{5,11} + 5 R{5,13} + 5 R{5,17} + 5 R{5,20}
   <= 5
 R2_75: 8 R{6,1} + 8 R{6,2} + 8 R{6,3} + 8 R{6,4} + 8 R{6,6} + 8 R{6,7}
   + 8 R{6,8} + 8 R{6,10} + 8 R{6,14} + 8 R{6,18} + 8 R{6,23} <= 8
 R2_76: 12 R{0,4} + 12 R{0,5} + 12 R{0,6} + 12 R{0,9} + 12 R{0,16}
   + 12 R{0,21} + 12 R{0,22} + 12 R{0,25} + 12 R{1,6} + 12 R{3,3}
   + 12 R{3,14} + 12 R{5,10} + 12 R{5,18} + 12 R{5,19} + 12 R{5,22}
   + 12 R{6,3} <= 12
 R2_77: 7 R{0,1} + 7 R{0,2} + 7 R{0,5} + 7 R{0,6} + 7 R{0,9} + 7 R{0,10}
   + 7 R{0,11} + 7 R{0,16} + 7 R{0,20} + 7 R{0,21} + 7 R{1,20} + 7 R{2,2}
   + 7 R{2,3} + 7 R{2,4} + 7 R{2,5} + 7 R{2,11} + 7 R{2,12} + 7 R{3,13}
   + 7 R{4,2} + 7 R{4,6} + 7 R{4,8} + 7 R{4,18} + 7 R{5,2} + 7 R{5,3}
   + 7 R{5,10} + 7 R{5,14} + 7 R{5,20} + 7 R{6,17} <= 7
Bounds
End
